c Sudoku solution
p cnf 729 0
137 0
151 0
168 0
199 0
234 0
265 0
291 0
375 0
419 0
422 0
431 0
447 0
498 0
518 0
545 0
485 0
644 0
658 0
474 0
524 0
184 0
669 0
561 0
552 0
738 0
797 0
816 0
839 0
972 0
712 0
914 0
894 0
995 0
933 0
311 0
213 0
332 0
115 0
126 0
617 0
623 0
536 0
635 0
593 0
862 0
173 0
396 0
142 0
282 0
692 0
988 0
871 0
883 0
848 0
676 0
681 0
779 0
786 0
278 0
387 0
257 0
246 0
229 0
328 0
855 0
725 0
921 0
827 0
741 0
949 0
343 0
364 0
359 0
754 0
763 0
453 0
466 0
956 0
967 0
577 0
589 0
